proyfinal/src/viki/013/experimentInOfficeAgust.take6.output/c4b68f9f-f2cb-406f-80b6-4f5a20a45b01.als.dat
{'cnf.clauses': '118081',
 'cnf.totvars': '69608',
 'conflict literals': '867',
 'conflicts': '130',
 'decisions': '4121',
 'memused.mb': '14.94',
 'outcome': 'UNSAT',
 'propagations': '170118',
 'restarts': '2',
 'solver.msecs': 31,
 'task.msecs': 80}
