proyfinal/src/viki/013/experimentInOfficeAgust.take6.output/c4b68f9f-f2cb-406f-80b6-4f5a20a45b01.als.out
Reading from standard input... Use '--help' for help.
============================[ Problem Statistics ]=============================
|                                                                             |
|  Number of variables:         69608                                         |
|  Number of clauses:          118081                                         |
|  Parse time:                   0.02 s                                       |
|                                                                             |
============================[ Search Statistics ]==============================
| Conflicts |          ORIGINAL         |          LEARNT          | Progress |
|           |    Vars  Clauses Literals |    Limit  Clauses Lit/Cl |          |
===============================================================================
|       100 |   56634    81420   201482 |    29854       93      8 | 18.639 % |
===============================================================================
restarts              : 2
conflicts             : 130            (4067 /sec)
decisions             : 4121           (0.00 % random) (128938 /sec)
propagations          : 170118         (5322675 /sec)
conflict literals     : 867            (26.40 % deleted)
Memory used           : 14.94 MB
CPU time              : 0.031961 s

UNSATISFIABLE
